5
5
0 499 720 234 364 
499 0 809 268 836 
720 809 0 751 685 
234 268 751 0 589 
364 836 685 589 0 
0 458 614 327 607 
458 0 325 777 563 
614 325 0 936 323 
327 777 936 0 871 
607 563 323 871 0 
0 282 379 375 398 
282 0 245 425 335 
379 245 0 651 107 
375 425 651 0 715 
398 335 107 715 0 
0 548 539 383 486 
548 0 563 736 677 
539 563 0 915 178 
383 736 915 0 869 
486 677 178 869 0 
0 905 603 72 217 
905 0 709 970 820 
603 709 0 669 715 
72 970 669 0 233 
217 820 715 233 0 
